num_offers = 20;
num_halls = 10;
start=[49,21,56,6,30,41,35,79,35,33,40,2,16,22,50,39,84,13,35,42];
end=[86,68,90,9,68,49,84,87,46,74,68,52,45,72,95,86,90,99,73,93];
price=[1968,2675,1153,292,2065,544,1972,650,669,3596,487,3816,453,4328,2253,1615,515,8190,2168,939];
requirement=[343,695,702,958,948,707,450,473,283,470,512,272,327,735,335,752,909,277,786,858];
capacity=[686,942,820,999,925,217,753,693,867,825];
